





























































































25 59 67 
72 9 27 
34 21 42 
48 65 76 
62 18 23 20 
56 16 41 19 
70 58 39 60 
68 64 30 8 
13 3 38 45 
33 36 4 51 
40 6 47 50 
17 66 44 46 
26 2 10 63 
57 24 74 73 
52 49 37 
53 0 69 32 
35 61 12 7 
71 15 55 31 
5 43 28 
54 11 1 75 
22 14 29 
